# Solution for model r5_t18_m1_6 Batch Number: 2
# Finished Task: 17 / 18
# Makespan: 674.0, Total Distance: 401.0, Total Time: 0.8907
# R O S F Batch
0 0 20 0.0 0.0 -1
1 1 22 0.0 0.0 -1
2 2 16 0.0 0.0 -1
3 3 8 0.0 0.0 -1
4 4 17 0.0 0.0 -1
5 3 14 296.0 319.0 0
6 -1 -1 -1.0 -1.0 1
7 4 -1 520.0 547.0 1
8 3 5 243.0 270.0 0
9 3 -1 653.0 674.0 1
10 0 -1 628.0 653.0 1
11 1 -1 496.0 522.0 1
12 2 21 441.0 469.0 0
13 3 18 440.0 466.0 1
14 3 13 332.0 370.0 0
15 3 9 522.0 557.0 1
16 2 12 384.0 412.0 0
17 4 19 270.0 300.0 0
18 3 15 478.0 504.0 1
19 4 7 469.0 496.0 1
20 0 10 572.0 604.0 0
21 2 -1 652.0 674.0 1
22 1 11 358.0 384.0 0
